0 1
0 2
0 4
0 5
0 8
0 9
0 11
0 14
0 16
0 18
0 21
0 22
0 23
0 31
0 32
0 33
0 35
0 36
0 37
0 39
0 40
0 42
0 43
0 44
0 48
0 49
0 51
0 52
0 53
0 54
0 56
0 58
0 62
0 65
0 67
0 68
0 69
0 78
0 80
0 81
0 83
0 85
0 86
0 87
0 94
0 97
0 98
0 99
0 101
0 102
0 104
0 105
0 109
0 110
0 111
0 112
0 113
0 114
0 115
0 116
0 119
0 120
0 121
0 122
0 123
0 124
0 125
0 126
0 127
0 128
0 129
0 131
0 132
0 133
0 137
0 138
0 139
0 140
0 141
0 142
0 149
0 150
0 151
0 152
0 153
0 154
0 155
0 156
0 157
0 158
0 159
0 163
0 164
0 167
0 168
0 169
0 173
0 174
0 175
0 183
0 184
0 194
0 195
0 197
0 202
0 205
0 214
0 215
0 216
0 217
0 236
0 248
0 249
0 259
0 260
0 286
0 297
0 298
0 301
0 306
0 307
0 312
0 315
0 320
0 350
0 355
0 362
0 376
0 377
0 389
0 400
0 416
0 420
0 421
0 422
0 449
0 480
0 502
0 505
0 512
0 539
0 551
0 569
0 573
0 619
0 620
0 621
0 625
0 630
0 662
0 672
0 863
1 4
1 5
1 6
1 8
1 9
1 10
1 14
1 16
1 17
1 18
1 21
1 22
1 23
1 33
1 35
1 36
1 39
1 43
1 44
1 53
1 54
1 61
1 96
1 97
1 101
1 105
1 112
1 113
1 116
1 117
1 118
1 120
1 149
1 150
1 155
1 163
1 167
1 168
1 173
1 176
1 183
1 184
1 185
1 194
1 195
1 196
1 198
1 204
1 205
1 213
1 215
1 216
1 228
1 237
1 238
1 243
1 248
1 249
1 260
1 301
1 302
1 315
1 331
1 339
1 341
1 376
1 388
1 400
1 416
1 511
1 516
1 573
1 580
1 625
1 630
1 704
1 928
2 5
2 31
2 33
2 44
2 49
2 51
2 60
2 61
2 78
2 79
2 83
2 84
2 94
2 97
2 114
2 115
2 121
2 122
2 123
2 124
2 125
2 126
2 127
2 128
2 129
2 131
2 137
2 138
2 139
2 140
2 141
2 142
2 143
2 152
2 153
2 156
2 157
2 158
2 174
2 221
2 236
2 245
2 248
2 254
2 255
2 259
2 266
2 267
2 269
2 274
2 290
2 292
2 297
2 309
2 310
2 312
2 320
2 340
2 341
2 344
2 345
2 351
2 364
2 365
2 369
2 402
2 415
2 420
2 421
2 493
2 502
2 515
2 525
2 536
2 548
2 609
2 699
2 995
3 49
3 96
3 111
3 247
3 333
3 572
3 689
3 728
3 793
3 841
3 888
3 895
3 937
4 5
4 6
4 8
4 9
4 10
4 11
4 13
4 20
4 22
4 32
4 33
4 35
4 37
4 38
4 39
4 42
4 46
4 48
4 52
4 54
4 56
4 58
4 62
4 65
4 68
4 69
4 80
4 85
4 86
4 87
4 97
4 98
4 99
4 101
4 102
4 104
4 108
4 109
4 112
4 113
4 119
4 120
4 132
4 136
4 149
4 150
4 154
4 163
4 164
4 167
4 168
4 178
4 185
4 189
4 190
4 194
4 195
4 204
4 205
4 213
4 214
4 216
4 228
4 238
4 241
4 253
4 268
4 286
4 306
4 332
4 368
4 383
4 385
4 392
4 407
4 469
4 578
4 700
4 754
5 8
5 9
5 14
5 16
5 31
5 33
5 36
5 40
5 44
5 54
5 58
5 65
5 78
5 79
5 83
5 94
5 96
5 97
5 101
5 105
5 112
5 113
5 114
5 115
5 120
5 121
5 122
5 123
5 124
5 125
5 126
5 127
5 128
5 129
5 137
5 138
5 139
5 140
5 141
5 142
5 149
5 150
5 152
5 153
5 155
5 156
5 157
5 158
5 163
5 167
5 168
5 169
5 174
5 185
5 195
5 215
5 216
5 217
5 243
5 248
5 249
5 260
5 286
5 301
5 355
5 376
5 377
5 400
5 416
5 420
5 421
5 422
5 502
5 503
5 511
5 662
6 10
6 16
6 17
6 20
6 26
6 29
6 30
6 34
6 38
6 46
6 50
6 57
6 60
6 63
6 64
6 70
6 71
6 72
6 73
6 74
6 75
6 76
6 77
6 79
6 82
6 88
6 89
6 90
6 91
6 92
6 100
6 106
6 108
6 118
6 134
6 135
6 136
6 178
6 180
6 181
6 190
6 201
6 212
6 241
6 253
6 264
6 296
6 302
6 372
6 385
6 407
6 451
6 646
6 647
6 673
6 768
6 772
7 12
7 15
7 25
7 55
7 79
7 146
7 147
7 160
7 162
7 210
7 222
7 223
7 226
7 232
7 251
7 254
7 265
7 273
7 276
7 281
7 283
7 323
7 337
7 348
7 386
7 408
7 441
7 543
7 563
7 568
7 603
7 651
7 653
7 687
7 688
8 9
8 11
8 14
8 18
8 21
8 22
8 23
8 32
8 33
8 35
8 37
8 39
8 42
8 48
8 52
8 53
8 54
8 56
8 58
8 62
8 65
8 67
8 68
8 69
8 80
8 81
8 85
8 86
8 87
8 98
8 99
8 101
8 102
8 103
8 104
8 109
8 110
8 112
8 113
8 119
8 120
8 132
8 133
8 149
8 150
8 154
8 163
8 164
8 167
8 168
8 173
8 183
8 184
8 185
8 194
8 195
8 196
8 197
8 202
8 216
8 217
8 315
8 625
9 11
9 18
9 21
9 23
9 32
9 33
9 35
9 37
9 39
9 42
9 43
9 48
9 52
9 53
9 54
9 56
9 58
9 62
9 65
9 67
9 68
9 69
9 80
9 81
9 85
9 86
9 87
9 98
9 99
9 101
9 102
9 103
9 104
9 105
9 109
9 110
9 112
9 113
9 119
9 120
9 132
9 133
9 149
9 150
9 154
9 163
9 164
9 167
9 168
9 173
9 183
9 184
9 195
9 196
9 197
9 217
9 315
10 16
10 17
10 20
10 26
10 29
10 30
10 34
10 38
10 46
10 50
10 57
10 60
10 63
10 64
10 70
10 71
10 72
10 73
10 74
10 75
10 76
10 77
10 79
10 82
10 88
10 90
10 91
10 92
10 96
10 100
10 117
10 118
10 134
10 135
10 136
10 166
10 171
10 178
10 179
10 189
10 190
10 201
10 212
10 241
10 264
10 296
10 302
10 326
10 372
10 373
10 396
10 455
10 516
10 668
10 720
11 21
11 22
11 32
11 33
11 35
11 37
11 39
11 40
11 42
11 44
11 48
11 52
11 53
11 56
11 58
11 62
11 65
11 67
11 68
11 69
11 78
11 80
11 81
11 83
11 85
11 86
11 87
11 94
11 98
11 99
11 102
11 103
11 104
11 109
11 110
11 114
11 115
11 119
11 121
11 122
11 123
11 124
11 125
11 126
11 127
11 128
11 129
11 132
11 133
11 138
11 139
11 140
11 141
11 142
11 152
11 153
11 154
11 156
11 157
11 158
11 164
11 174
11 175
11 197
11 202
12 15
12 25
12 55
12 79
12 146
12 147
12 160
12 162
12 221
12 222
12 223
12 226
12 232
12 276
12 281
12 283
12 323
12 335
12 348
12 386
12 428
12 441
12 563
13 19
13 24
13 27
13 47
13 93
13 161
13 191
13 209
13 225
13 245
13 268
13 316
13 478
13 578
14 16
14 19
14 36
14 41
14 43
14 116
14 155
14 194
14 213
14 215
14 216
14 243
14 260
14 416
14 484
14 511
14 580
14 582
15 24
15 28
15 55
15 60
15 79
15 147
15 222
15 251
15 293
15 303
15 304
15 325
15 349
15 406
15 434
15 464
15 484
15 603
15 612
15 919
16 17
16 22
16 35
16 36
16 39
16 43
16 53
16 61
16 96
16 97
16 116
16 117
16 118
16 155
16 176
16 198
16 204
16 205
16 213
16 228
16 237
16 238
16 243
16 249
16 301
16 302
16 331
16 341
16 355
16 376
16 400
16 422
16 516
16 580
16 704
17 60
17 79
17 117
17 118
17 302
17 485
17 675
17 684
17 734
18 21
18 22
18 23
18 32
18 33
18 35
18 37
18 39
18 42
18 48
18 52
18 53
18 54
18 56
18 58
18 62
18 65
18 67
18 68
18 69
18 80
18 81
18 85
18 86
18 87
18 97
18 98
18 99
18 101
18 102
18 103
18 104
18 109
18 110
18 112
18 113
18 119
18 120
18 132
18 133
18 149
18 150
18 163
18 167
18 169
18 173
18 183
18 184
18 185
18 196
18 197
18 217
18 286
18 307
19 24
19 27
19 36
19 43
19 47
19 93
19 130
19 169
19 191
19 209
19 225
19 243
19 277
19 292
19 316
19 371
19 394
19 454
19 478
19 508
19 546
20 26
20 29
20 30
20 34
20 38
20 46
20 50
20 57
20 63
20 64
20 70
20 71
20 72
20 73
20 74
20 75
20 76
20 77
20 82
20 88
20 89
20 90
20 91
20 92
20 100
20 108
20 134
20 136
20 165
20 178
20 180
20 189
20 190
20 201
20 203
20 208
20 241
20 253
20 296
20 385
20 407
20 544
20 668
20 737
20 741
20 772
21 32
21 33
21 35
21 37
21 39
21 42
21 48
21 52
21 53
21 54
21 56
21 58
21 62
21 65
21 67
21 68
21 69
21 80
21 81
21 85
21 86
21 87
21 98
21 99
21 101
21 102
21 103
21 105
21 109
21 110
21 112
21 113
21 119
21 120
21 132
21 133
21 149
21 150
21 163
21 167
21 173
21 183
21 184
21 185
21 195
21 196
21 197
21 217
22 37
22 39
22 43
22 48
22 52
22 53
22 56
22 58
22 62
22 65
22 67
22 68
22 69
22 80
22 81
22 85
22 86
22 87
22 97
22 98
22 99
22 102
22 109
22 118
22 119
22 133
22 154
22 169
22 183
22 205
22 209
22 214
22 215
22 286
22 298
22 306
22 307
22 401
22 402
22 423
22 504
22 573
22 574
23 35
23 37
23 39
23 42
23 53
23 54
23 61
23 62
23 118
23 164
23 170
23 176
23 198
23 215
23 228
23 230
23 237
23 238
23 250
23 289
23 306
23 324
23 331
23 379
23 388
23 389
23 392
23 465
23 527
23 562
23 592
24 27
24 28
24 47
24 93
24 169
24 177
24 186
24 187
24 191
24 209
24 225
24 240
24 262
24 263
24 268
24 277
24 405
24 454
24 478
24 508
25 55
25 79
25 146
25 147
25 160
25 162
25 221
25 223
25 226
25 234
25 256
25 265
25 266
25 267
25 281
25 283
25 284
25 323
25 335
25 340
25 364
25 386
25 441
25 467
25 470
25 486
25 566
25 687
25 688
26 29
26 30
26 34
26 38
26 63
26 64
26 70
26 71
26 72
26 73
26 74
26 75
26 76
26 77
26 82
26 88
26 89
26 90
26 91
26 92
26 100
26 108
26 134
26 135
26 136
26 166
26 171
26 172
26 180
26 199
26 201
26 203
26 207
26 208
26 322
26 336
26 338
26 366
26 372
26 375
26 387
26 438
26 452
26 463
26 474
26 497
26 498
26 776
26 777
26 778
27 48
27 93
27 130
27 161
27 191
27 225
27 246
27 252
27 268
27 313
27 371
27 378
27 403
27 424
27 552
27 782
28 79
28 186
28 187
28 211
28 231
28 239
28 240
28 251
28 262
28 263
28 271
28 272
28 280
28 303
28 304
28 321
28 325
28 349
28 382
28 405
28 484
28 531
28 676
28 753
29 30
29 34
29 38
29 46
29 50
29 57
29 63
29 64
29 70
29 71
29 72
29 73
29 74
29 75
29 76
29 77
29 82
29 88
29 89
29 91
29 92
29 100
29 134
29 136
29 165
29 172
29 178
29 181
29 189
29 190
29 199
29 253
29 296
29 322
29 375
29 426
29 459
29 544
29 658
30 34
30 38
30 46
30 50
30 57
30 63
30 64
30 70
30 71
30 72
30 73
30 74
30 75
30 76
30 77
30 82
30 88
30 89
30 90
30 91
30 92
30 100
30 134
30 136
30 165
30 166
30 171
30 172
30 178
30 179
30 180
30 181
30 189
30 199
30 203
30 207
30 208
30 212
30 296
30 322
30 375
30 452
30 455
31 40
31 44
31 83
31 94
31 97
31 115
31 121
31 122
31 123
31 124
31 125
31 126
31 127
31 128
31 129
31 137
31 138
31 139
31 140
31 141
31 142
31 152
31 153
31 156
31 157
31 158
31 174
31 362
31 420
31 421
31 502
31 505
31 512
31 618
31 709
31 710
31 824
32 35
32 37
32 39
32 42
32 48
32 52
32 53
32 54
32 56
32 58
32 62
32 65
32 67
32 68
32 69
32 80
32 81
32 85
32 86
32 87
32 98
32 99
32 102
32 103
32 104
32 109
32 110
32 119
32 132
32 133
32 154
32 202
32 383
33 35
33 37
33 39
33 42
33 43
33 48
33 49
33 52
33 53
33 54
33 56
33 58
33 65
33 67
33 68
33 69
33 80
33 81
33 85
33 86
33 87
33 98
33 99
33 101
33 103
33 105
33 109
33 110
33 112
33 113
33 119
33 120
33 133
33 149
33 150
33 163
33 164
33 167
33 168
33 173
33 185
33 195
33 196
34 38
34 46
34 50
34 57
34 63
34 64
34 70
34 71
34 72
34 73
34 74
34 75
34 76
34 77
34 82
34 88
34 89
34 90
34 91
34 92
34 100
34 108
34 134
34 135
34 136
34 166
34 171
34 172
34 179
34 180
34 181
34 199
34 201
34 203
34 207
34 208
34 212
34 264
34 326
34 372
34 396
34 455
34 462
34 489
35 37
35 42
35 48
35 52
35 53
35 54
35 56
35 58
35 62
35 65
35 67
35 68
35 69
35 80
35 81
35 85
35 86
35 87
35 98
35 99
35 102
35 103
35 104
35 109
35 110
35 119
35 132
35 133
35 154
35 164
35 176
35 202
35 230
35 237
35 250
35 289
35 331
35 360
35 361
35 432
35 433
35 529
36 43
36 97
36 155
36 161
36 194
36 243
36 249
36 301
36 355
36 363
36 376
36 377
36 422
37 39
37 42
37 48
37 52
37 53
37 54
37 56
37 58
37 62
37 65
37 67
37 68
37 69
37 80
37 81
37 85
37 86
37 87
37 97
37 98
37 99
37 102
37 103
37 104
37 109
37 110
37 119
37 132
37 133
37 154
37 164
37 169
37 183
37 194
37 202
37 216
37 306
37 350
37 389
38 46
38 50
38 57
38 63
38 64
38 70
38 71
38 72
38 73
38 74
38 75
38 76
38 77
38 82
38 88
38 89
38 90
38 91
38 92
38 100
38 108
38 134
38 165
38 178
38 180
38 189
38 190
38 201
38 203
38 208
38 212
38 253
38 544
38 737
38 741
39 42
39 48
39 52
39 53
39 54
39 56
39 58
39 61
39 62
39 65
39 67
39 68
39 69
39 80
39 81
39 85
39 87
39 98
39 99
39 102
39 103
39 104
39 118
39 119
39 120
39 132
39 133
39 154
39 164
39 197
39 202
39 228
39 250
39 306
39 350
39 389
40 44
40 78
40 83
40 94
40 114
40 115
40 121
40 122
40 123
40 124
40 125
40 126
40 127
40 128
40 129
40 137
40 138
40 139
40 140
40 141
40 142
40 151
40 152
40 153
40 156
40 157
40 158
40 174
40 175
40 817
40 846
40 847
40 887
41 144
41 161
41 243
41 428
41 430
41 434
41 523
41 524
41 564
41 565
41 597
41 598
41 804
41 819
41 909
42 48
42 52
42 53
42 54
42 56
42 58
42 62
42 65
42 67
42 68
42 69
42 80
42 81
42 85
42 86
42 87
42 99
42 102
42 103
42 104
42 109
42 110
42 119
42 132
42 133
42 154
42 164
42 202
42 496
42 528
42 532
42 574
43 112
43 194
43 205
43 216
43 286
43 307
43 316
43 770
44 78
44 83
44 94
44 114
44 115
44 121
44 122
44 123
44 124
44 125
44 126
44 127
44 128
44 129
44 137
44 138
44 139
44 140
44 141
44 142
44 151
44 152
44 156
44 157
44 158
44 174
44 175
44 248
44 301
44 355
44 420
44 421
45 51
45 66
45 84
45 159
45 182
45 192
45 193
45 218
45 219
45 227
45 242
45 257
45 270
45 279
45 287
45 288
45 308
45 318
45 327
45 328
45 329
45 330
45 334
45 342
45 343
45 381
45 391
45 398
45 412
45 413
45 440
45 472
45 477
45 479
46 50
46 57
46 63
46 64
46 70
46 71
46 72
46 73
46 74
46 75
46 76
46 77
46 82
46 88
46 89
46 90
46 91
46 92
46 100
46 108
46 136
46 165
46 178
46 189
46 190
46 212
46 241
46 253
46 296
46 385
46 407
46 544
47 116
47 155
47 206
47 363
47 418
47 473
47 575
47 616
48 52
48 53
48 56
48 58
48 62
48 65
48 67
48 68
48 69
48 80
48 81
48 85
48 86
48 87
48 98
48 99
48 102
48 103
48 104
48 109
48 110
48 132
48 154
48 164
48 197
48 202
48 214
49 79
49 106
49 131
49 144
49 159
49 229
49 236
49 248
49 255
49 259
49 312
49 317
49 320
49 351
49 393
49 536
49 615
49 694
49 699
49 933
50 57
50 63
50 64
50 70
50 71
50 72
50 73
50 74
50 75
50 76
50 77
50 88
50 89
50 90
50 91
50 92
50 100
50 134
50 135
50 136
50 165
50 166
50 171
50 172
50 179
50 180
50 181
50 203
50 208
50 219
50 720
51 66
51 84
51 159
51 198
51 218
51 219
51 236
51 259
51 269
51 270
51 290
51 309
51 310
51 319
51 320
51 344
51 345
51 369
51 393
51 415
51 448
51 480
51 626
52 53
52 56
52 58
52 62
52 65
52 67
52 68
52 69
52 80
52 81
52 86
52 87
52 97
52 98
52 102
52 103
52 104
52 109
52 119
52 133
52 154
52 164
52 169
52 198
52 301
52 527
52 681
52 729
53 56
53 58
53 62
53 65
53 67
53 68
53 69
53 80
53 81
53 85
53 86
53 87
53 98
53 99
53 102
53 103
53 104
53 109
53 119
53 132
53 133
53 164
53 176
53 197
53 250
54 62
54 68
54 69
54 80
54 85
54 87
54 99
54 101
54 104
54 105
54 112
54 113
54 119
54 120
54 132
54 149
54 150
54 154
54 163
54 167
54 168
54 173
54 183
54 184
54 196
54 215
54 306
55 60
55 146
55 177
55 186
55 222
55 223
55 226
55 256
55 266
55 271
55 274
55 276
55 281
55 283
55 284
55 323
55 340
55 357
55 364
55 486
55 521
55 651
56 58
56 62
56 65
56 67
56 68
56 69
56 80
56 81
56 85
56 86
56 87
56 98
56 99
56 102
56 103
56 104
56 109
56 119
56 132
56 133
56 154
56 164
56 197
56 202
56 306
56 350
56 389
57 63
57 64
57 70
57 71
57 72
57 73
57 74
57 76
57 77
57 82
57 88
57 89
57 90
57 91
57 92
57 100
57 134
57 135
57 165
57 166
57 171
57 172
57 178
57 179
57 180
57 181
57 189
57 190
57 203
57 208
57 668
58 62
58 65
58 67
58 68
58 69
58 80
58 81
58 85
58 86
58 87
58 97
58 98
58 99
58 102
58 103
58 104
58 109
58 110
58 119
58 132
58 133
58 154
58 164
58 169
58 301
58 672
59 111
59 131
59 143
59 144
59 200
59 258
59 275
59 291
59 311
59 346
59 370
59 476
60 117
60 118
60 147
60 177
60 234
60 256
60 258
60 266
60 267
60 274
60 302
60 319
60 365
60 436
60 459
60 467
60 525
61 117
61 118
61 176
61 198
61 204
61 213
61 228
61 237
61 250
61 289
61 341
61 592
62 65
62 67
62 68
62 69
62 80
62 81
62 85
62 86
62 87
62 98
62 99
62 102
62 103
62 104
62 109
62 119
62 133
62 154
62 164
62 173
62 196
62 202
63 64
63 70
63 71
63 72
63 73
63 74
63 75
63 76
63 77
63 82
63 88
63 89
63 90
63 91
63 92
63 100
63 134
63 135
63 136
63 165
63 166
63 171
63 172
63 179
63 180
63 181
63 199
63 203
63 207
63 208
63 373
64 70
64 71
64 72
64 73
64 74
64 75
64 76
64 77
64 82
64 88
64 89
64 90
64 91
64 92
64 100
64 134
64 135
64 136
64 165
64 166
64 171
64 172
64 179
64 180
64 181
64 199
64 203
64 207
64 208
64 373
65 67
65 68
65 69
65 80
65 81
65 86
65 87
65 97
65 98
65 99
65 102
65 103
65 104
65 114
65 119
65 133
65 154
65 164
65 169
65 301
65 672
66 84
66 182
66 192
66 193
66 218
66 219
66 227
66 242
66 257
66 270
66 279
66 287
66 288
66 308
66 328
66 329
66 330
66 334
66 342
66 343
66 381
66 398
66 412
66 413
66 446
66 447
66 472
66 477
66 479
67 68
67 80
67 81
67 85
67 86
67 87
67 98
67 99
67 102
67 103
67 104
67 109
67 110
67 119
67 132
67 133
67 164
67 197
68 69
68 80
68 81
68 85
68 86
68 87
68 98
68 99
68 102
68 103
68 104
68 109
68 119
68 132
68 133
68 154
68 164
68 202
69 80
69 81
69 85
69 86
69 87
69 98
69 99
69 102
69 103
69 104
69 109
69 110
69 119
69 132
69 133
69 154
69 164
69 202
70 71
70 72
70 73
70 74
70 75
70 76
70 77
70 82
70 88
70 89
70 90
70 91
70 92
70 100
70 134
70 135
70 136
70 166
70 171
70 172
70 179
70 180
70 181
70 199
70 203
70 207
70 208
71 72
71 73
71 74
71 75
71 76
71 77
71 82
71 88
71 89
71 90
71 91
71 92
71 100
71 134
71 135
71 136
71 165
71 171
71 179
71 180
71 181
71 199
71 203
71 207
71 208
71 241
71 373
72 73
72 74
72 75
72 76
72 77
72 82
72 88
72 89
72 90
72 91
72 92
72 100
72 134
72 135
72 136
72 165
72 166
72 171
72 172
72 179
72 180
72 181
72 199
72 203
72 207
72 208
73 74
73 75
73 76
73 77
73 82
73 88
73 89
73 90
73 91
73 100
73 134
73 135
73 136
73 165
73 166
73 171
73 172
73 179
73 180
73 181
73 199
73 203
73 207
73 208
73 373
74 75
74 76
74 77
74 82
74 88
74 89
74 90
74 91
74 92
74 100
74 134
74 135
74 136
74 165
74 166
74 171
74 172
74 179
74 180
74 181
74 199
74 203
74 207
74 208
75 76
75 77
75 82
75 88
75 89
75 90
75 91
75 92
75 100
75 135
75 136
75 165
75 166
75 171
75 172
75 179
75 180
75 181
75 203
75 208
75 459
76 77
76 82
76 88
76 89
76 90
76 91
76 92
76 100
76 134
76 135
76 136
76 165
76 166
76 171
76 172
76 179
76 180
76 181
76 199
76 203
76 207
76 208
77 82
77 88
77 89
77 90
77 91
77 92
77 100
77 135
77 136
77 165
77 166
77 171
77 172
77 179
77 180
77 181
77 203
77 208
77 241
77 373
78 79
78 83
78 94
78 115
78 121
78 122
78 123
78 124
78 125
78 126
78 127
78 128
78 129
78 137
78 139
78 140
78 141
78 151
78 152
78 153
78 157
78 333
78 669
78 786
78 787
79 96
79 144
79 146
79 221
79 226
79 303
79 304
79 323
79 325
79 335
79 349
79 386
79 441
79 699
80 81
80 85
80 86
80 87
80 98
80 99
80 102
80 103
80 104
80 109
80 110
80 119
80 133
80 154
80 164
80 202
81 85
81 86
81 87
81 98
81 99
81 102
81 103
81 104
81 109
81 110
81 119
81 132
81 133
81 164
81 197
82 88
82 89
82 90
82 91
82 92
82 100
82 134
82 135
82 136
82 166
82 171
82 172
82 179
82 180
82 181
82 199
82 203
82 207
82 208
82 373
83 94
83 114
83 115
83 121
83 122
83 123
83 124
83 125
83 126
83 127
83 128
83 129
83 137
83 138
83 139
83 140
83 141
83 142
83 151
83 152
83 153
83 156
83 157
83 158
83 174
83 362
83 505
83 512
84 159
84 218
84 219
84 269
84 270
84 279
84 290
84 309
84 310
84 318
84 327
84 334
84 345
84 369
84 380
84 415
84 439
84 440
84 471
84 472
84 538
85 86
85 87
85 98
85 99
85 103
85 104
85 109
85 110
85 119
85 132
85 133
85 154
85 164
85 202
86 87
86 98
86 99
86 102
86 103
86 104
86 109
86 110
86 119
86 132
86 133
86 154
86 164
86 202
87 98
87 99
87 102
87 103
87 104
87 109
87 110
87 132
87 154
87 164
87 202
88 89
88 91
88 92
88 100
88 134
88 136
88 165
88 166
88 171
88 172
88 179
88 180
88 181
88 199
88 203
88 207
89 90
89 91
89 92
89 134
89 135
89 136
89 165
89 166
89 171
89 172
89 179
89 180
89 181
89 199
89 203
89 207
89 208
90 91
90 92
90 100
90 134
90 135
90 136
90 165
90 166
90 171
90 172
90 179
90 180
90 181
90 199
90 203
90 207
90 208
91 92
91 100
91 134
91 136
91 165
91 166
91 171
91 172
91 179
91 180
91 181
91 199
91 203
91 207
91 208
92 100
92 134
92 135
92 136
92 165
92 166
92 171
92 172
92 179
92 180
92 181
92 199
92 203
92 207
92 208
93 169
93 191
93 209
93 214
93 225
93 245
93 268
93 277
93 394
93 578
94 114
94 115
94 121
94 122
94 123
94 124
94 125
94 126
94 127
94 128
94 129
94 137
94 138
94 139
94 140
94 141
94 142
94 152
94 153
94 156
94 157
94 158
94 174
94 175
95 431
95 526
95 599
95 717
95 718
95 728
95 732
95 794
95 796
95 867
95 868
96 131
96 143
96 244
96 311
96 319
96 320
96 490
96 503
96 516
96 837
97 116
97 120
97 151
97 155
97 169
97 205
97 214
97 249
97 286
97 298
97 301
97 307
97 355
97 376
97 400
97 420
97 421
97 502
97 672
98 99
98 102
98 103
98 104
98 109
98 110
98 132
98 154
98 164
98 202
99 103
99 104
99 109
99 110
99 132
99 154
99 164
99 202
100 135
100 136
100 165
100 166
100 171
100 179
100 180
100 203
100 208
100 241
100 373
101 105
101 112
101 113
101 120
101 149
101 150
101 163
101 167
101 168
101 173
101 183
101 184
101 185
101 195
101 196
101 217
101 315
101 719
102 103
102 109
102 119
102 132
102 133
102 154
102 164
102 197
102 202
103 104
103 109
103 110
103 119
103 133
103 164
104 109
104 110
104 119
104 132
104 133
104 154
104 197
104 202
105 112
105 113
105 149
105 150
105 163
105 168
105 173
105 183
105 185
105 195
105 255
105 315
105 395
105 458
105 483
105 576
105 596
106 247
106 599
106 613
106 689
106 731
106 732
106 735
106 744
106 749
106 807
106 809
106 810
106 833
106 869
106 876
106 913
106 921
106 922
106 963
106 998
107 170
107 188
107 194
107 216
107 324
107 353
107 410
107 444
107 453
107 456
107 559
107 560
107 601
107 610
107 946
108 178
108 189
108 190
108 201
108 212
108 241
108 253
108 296
108 322
108 326
108 385
108 396
108 407
108 452
108 462
108 489
108 628
109 110
109 154
109 164
109 202
110 119
110 132
110 133
110 164
110 197
111 131
111 144
111 200
111 258
111 275
111 346
111 351
111 445
112 113
112 149
112 150
112 163
112 167
112 168
112 173
112 183
112 184
112 185
112 195
112 196
112 217
112 286
112 315
112 625
112 650
113 120
113 149
113 150
113 163
113 167
113 168
113 173
113 183
113 184
113 185
113 195
113 196
113 217
113 315
113 625
114 115
114 121
114 122
114 123
114 124
114 125
114 126
114 127
114 128
114 129
114 137
114 138
114 139
114 140
114 141
114 142
114 151
114 152
114 153
114 156
114 157
114 158
114 174
114 175
115 121
115 122
115 123
115 124
115 125
115 126
115 127
115 128
115 129
115 137
115 138
115 139
115 140
115 141
115 142
115 151
115 152
115 153
115 156
115 157
115 158
115 174
115 175
115 515
116 301
116 355
117 118
117 155
117 204
117 213
117 302
117 341
117 704
118 176
118 228
118 237
118 238
118 250
118 302
118 317
118 401
118 402
118 423
118 459
118 517
118 592
119 132
119 133
119 154
119 202
120 149
120 150
120 163
120 167
120 168
120 169
120 183
120 184
120 185
120 196
120 216
120 217
120 286
120 307
120 315
120 625
121 122
121 123
121 124
121 125
121 126
121 127
121 128
121 129
121 137
121 138
121 139
121 140
121 141
121 142
121 151
121 152
121 153
121 156
121 157
121 158
121 174
121 175
122 123
122 124
122 125
122 126
122 127
122 128
122 129
122 137
122 138
122 139
122 140
122 141
122 142
122 151
122 152
122 153
122 156
122 157
122 158
122 174
122 175
123 124
123 125
123 126
123 127
123 128
123 129
123 138
123 139
123 140
123 141
123 142
123 151
123 152
123 153
123 156
123 157
123 158
123 174
123 175
124 125
124 126
124 127
124 128
124 129
124 137
124 138
124 139
124 140
124 141
124 142
124 151
124 152
124 153
124 156
124 157
124 158
124 174
124 175
125 126
125 127
125 128
125 129
125 137
125 138
125 139
125 140
125 141
125 142
125 152
125 153
125 156
125 157
125 158
125 174
125 175
126 127
126 128
126 129
126 137
126 138
126 139
126 140
126 141
126 142
126 151
126 152
126 153
126 156
126 157
126 158
126 174
126 175
127 128
127 129
127 137
127 138
127 139
127 140
127 141
127 142
127 151
127 152
127 153
127 156
127 157
127 158
127 174
127 175
128 129
128 137
128 138
128 139
128 140
128 141
128 142
128 151
128 152
128 153
128 156
128 157
128 158
128 174
128 175
129 137
129 138
129 140
129 141
129 142
129 151
129 152
129 153
129 158
129 175
130 191
130 197
130 214
130 224
130 225
130 252
130 268
130 313
130 356
130 378
130 403
130 404
130 424
130 425
130 482
130 552
130 636
130 665
130 722
130 761
131 143
131 144
131 159
131 160
131 200
131 236
131 244
131 248
131 258
131 291
131 311
131 346
131 370
131 445
131 476
131 542
132 133
132 197
132 202
132 214
133 197
134 135
134 165
134 172
134 181
134 190
134 199
134 207
134 373
135 136
135 165
135 166
135 171
135 172
135 179
135 199
135 203
135 207
135 208
136 165
136 178
136 189
136 190
136 241
137 138
137 139
137 140
137 141
137 142
137 156
137 157
137 297
137 449
137 539
137 619
137 623
138 139
138 140
138 141
138 142
138 151
138 152
138 153
138 156
138 157
138 158
138 174
138 175
139 140
139 141
139 142
139 151
139 152
139 153
139 156
139 157
139 158
139 174
139 175
140 141
140 142
140 151
140 152
140 153
140 156
140 157
140 174
140 175
141 142
141 151
141 152
141 153
141 156
141 157
141 158
141 174
141 175
142 151
142 152
142 153
142 156
142 157
142 158
142 174
142 175
143 144
143 200
143 258
143 291
143 370
143 445
144 200
144 258
144 275
144 278
144 291
144 346
144 370
144 445
144 476
144 536
144 542
144 587
144 589
144 660
144 698
145 305
145 554
145 561
145 600
145 602
145 697
145 750
145 960
145 961
145 962
146 160
146 162
146 210
146 223
146 226
146 232
146 251
146 254
146 265
146 283
146 323
146 335
146 386
146 408
146 441
146 486
146 651
146 725
146 798
147 162
147 222
147 276
147 293
147 434
147 464
147 603
147 612
148 235
148 245
148 261
148 285
148 299
148 300
148 314
148 352
148 354
148 358
148 390
148 399
148 411
148 419
148 442
148 443
148 475
148 579
148 624
148 987
149 150
149 163
149 167
149 168
149 173
149 183
149 184
149 185
149 195
149 196
149 216
149 217
149 298
149 315
149 350
150 167
150 168
150 173
150 176
150 183
150 184
150 185
150 195
150 196
150 216
150 217
150 315
150 785
151 152
151 153
151 156
151 157
151 158
151 174
151 204
151 213
151 875
152 153
152 157
152 158
152 174
152 175
153 156
153 157
153 158
153 174
153 175
154 202
155 204
155 206
155 213
155 249
155 355
155 363
155 400
155 418
155 453
155 473
155 575
155 582
156 157
156 158
156 175
157 158
157 175
158 174
158 175
159 200
159 218
159 219
159 247
159 248
159 259
159 270
159 279
159 312
159 317
159 318
159 334
159 380
159 381
159 393
159 457
159 591
159 633
160 210
160 221
160 223
160 232
160 254
160 265
160 273
160 281
160 283
160 386
160 408
160 470
160 495
160 568
160 687
160 688
161 225
161 245
161 371
161 450
161 548
161 629
161 988
162 210
162 222
162 223
162 232
162 254
162 265
162 276
162 281
162 323
162 386
162 408
162 486
162 543
162 566
163 167
163 168
163 169
163 173
163 183
163 184
163 195
163 196
163 217
163 315
165 166
165 172
165 180
165 199
165 203
165 373
166 171
166 172
166 179
166 181
166 199
166 207
166 373
167 168
167 173
167 183
167 184
167 185
167 195
167 196
167 217
168 185
168 195
168 197
168 214
168 216
168 217
168 315
168 437
168 872
169 191
169 209
169 277
169 401
169 574
169 621
169 700
169 703
169 755
169 756
170 194
170 324
170 353
170 388
170 453
170 456
170 499
170 537
170 540
170 559
170 560
170 562
170 601
170 610
170 813
170 826
171 172
171 179
171 181
171 199
171 207
172 179
172 181
172 199
172 207
173 183
173 184
173 195
173 196
173 217
173 815
174 175
176 230
176 237
176 238
176 250
176 331
176 360
176 361
176 368
176 392
176 417
176 432
176 433
176 529
176 592
176 785
176 873
176 969
177 186
177 231
177 234
177 240
177 256
177 262
177 263
177 266
177 267
177 274
177 284
177 340
177 364
177 365
177 405
178 180
178 190
178 201
178 212
178 241
178 253
178 296
178 372
178 385
178 407
178 451
178 768
179 181
179 199
179 207
180 189
180 373
181 199
181 207
182 192
182 193
182 227
182 242
182 257
182 287
182 288
182 308
182 328
182 329
182 330
182 342
182 343
182 391
182 398
182 412
182 413
182 446
182 447
182 477
182 479
183 184
183 185
183 195
183 196
183 205
183 217
183 315
184 185
184 195
184 196
184 217
184 719
185 195
185 196
185 217
185 315
186 187
186 211
186 231
186 239
186 240
186 262
186 263
186 271
186 272
186 280
186 357
186 382
186 405
186 521
186 522
187 211
187 231
187 239
187 240
187 262
187 272
187 280
187 304
187 461
187 555
187 677
187 791
187 880
187 881
188 282
188 295
188 305
188 394
188 410
188 444
188 506
188 674
188 818
189 190
189 201
189 212
189 241
189 253
189 296
189 385
189 407
190 201
190 212
190 241
190 253
190 296
190 385
190 407
191 209
191 225
191 246
191 268
191 277
192 193
192 227
192 242
192 257
192 287
192 288
192 308
192 328
192 329
192 330
192 342
192 343
192 391
192 398
192 412
192 413
192 446
192 447
192 477
192 479
193 227
193 242
193 257
193 287
193 288
193 308
193 328
193 329
193 330
193 342
193 343
193 391
193 398
193 412
193 413
193 446
193 447
193 477
193 479
194 205
194 214
194 215
194 216
194 298
194 307
194 353
194 456
195 196
195 217
196 217
196 719
197 202
197 425
197 437
197 636
198 306
198 339
198 448
198 480
198 573
198 714
198 742
199 207
200 247
200 258
200 275
200 291
200 346
200 370
200 445
200 457
200 542
200 591
201 212
201 264
201 326
201 336
201 366
201 372
201 375
201 396
201 455
201 462
201 489
201 659
203 208
203 241
204 213
204 228
204 238
204 332
204 341
204 367
204 368
204 371
204 383
204 469
204 580
205 214
205 215
205 216
205 286
205 307
205 316
205 805
206 363
206 418
206 444
206 473
206 575
206 712
206 713
206 759
208 373
209 225
209 268
209 277
209 478
209 532
209 574
209 578
209 662
210 220
210 254
210 265
210 273
210 337
210 347
210 408
210 470
210 543
211 231
211 239
211 240
211 245
211 263
211 271
211 272
211 280
211 450
211 522
211 548
211 629
212 253
212 264
212 326
212 372
212 396
212 455
212 462
212 489
213 228
213 238
213 332
213 341
213 367
213 368
213 371
213 580
214 224
214 298
214 635
214 663
214 872
215 216
215 260
215 416
215 511
215 630
215 759
216 260
216 298
216 416
218 219
218 270
218 318
218 327
218 334
218 380
218 439
218 471
218 472
218 657
219 229
219 270
219 279
219 318
219 319
219 334
219 380
219 381
220 239
220 304
220 321
220 347
220 359
220 406
220 461
220 494
220 531
220 593
220 594
220 595
220 654
220 655
221 226
221 251
221 281
221 283
221 323
221 337
221 762
222 223
222 276
222 348
222 434
222 464
223 254
223 265
223 273
223 408
223 688
224 252
224 313
224 356
224 403
224 427
224 435
224 468
224 504
224 533
224 556
224 558
224 606
224 635
224 663
224 678
224 839
224 840
224 910
224 925
225 268
225 277
226 232
226 251
226 281
226 283
226 335
226 386
226 568
226 653
226 725
227 242
227 257
227 287
227 288
227 308
227 328
227 329
227 330
227 342
227 343
227 398
227 477
227 479
228 250
228 298
228 332
228 350
228 367
228 368
228 383
228 573
228 592
229 236
229 312
229 319
229 333
229 481
229 513
229 586
229 632
229 781
230 237
230 250
230 331
230 361
230 417
230 432
230 433
230 510
230 529
230 530
230 549
230 550
230 583
230 584
230 585
230 745
230 997
231 239
231 240
231 262
231 263
231 271
231 272
231 280
231 357
231 382
231 522
232 265
232 335
232 441
232 543
232 568
233 427
233 491
234 256
234 266
234 267
234 274
234 276
234 284
234 340
234 364
234 365
234 436
234 467
235 261
235 285
235 300
235 314
235 358
235 390
235 409
235 411
235 419
235 442
235 443
235 450
235 475
235 501
235 548
236 248
236 255
236 258
236 259
236 312
236 317
236 320
236 369
236 393
236 541
236 620
236 622
236 694
237 250
237 289
237 331
237 360
237 361
237 417
237 432
237 433
237 510
237 549
237 550
238 289
238 331
238 332
238 360
238 368
238 383
238 392
239 240
239 263
239 271
239 280
239 382
239 522
240 263
240 271
240 272
240 280
240 382
240 405
241 253
241 385
241 407
242 257
242 287
242 288
242 308
242 328
242 329
242 330
242 342
242 343
242 391
242 412
242 413
242 446
242 447
243 394
243 607
244 311
245 371
245 411
245 442
245 443
245 450
245 475
245 624
247 457
247 591
247 633
248 255
248 259
248 301
248 312
248 317
248 320
248 355
248 393
248 480
249 301
249 355
249 376
249 377
249 400
249 422
249 664
249 667
249 764
250 289
250 325
250 331
250 360
250 432
250 433
250 529
250 592
251 303
251 304
251 325
251 335
251 349
251 386
251 441
252 356
252 378
252 403
252 404
252 424
252 427
252 437
252 468
252 482
252 533
252 552
252 758
252 761
252 854
253 296
253 385
254 265
254 273
254 337
254 470
254 486
254 762
255 312
255 483
255 576
256 266
256 267
256 274
256 276
256 284
256 340
256 365
257 287
257 288
257 308
257 328
257 329
257 330
257 342
257 343
257 391
257 412
257 413
257 446
257 447
258 275
258 291
258 297
258 346
258 414
258 534
258 535
258 567
259 312
259 317
259 320
259 393
259 500
259 541
259 590
259 947
260 416
260 511
260 630
260 766
261 285
261 299
261 300
261 314
261 352
261 354
261 358
261 390
261 399
261 409
261 419
262 263
262 271
262 272
262 280
262 382
262 405
263 271
263 272
263 280
263 382
263 405
264 326
264 372
264 396
264 455
264 462
264 489
264 835
264 885
264 954
265 273
265 337
265 408
265 470
265 612
266 267
266 274
266 284
266 340
266 436
266 467
266 525
267 274
267 284
267 340
267 364
267 365
267 525
268 509
268 578
268 901
269 290
269 309
269 310
269 344
269 345
269 369
269 415
270 318
270 319
270 334
270 472
271 272
271 357
271 382
271 521
272 280
272 382
272 522
273 408
273 486
274 284
274 340
274 436
274 467
275 291
275 346
275 370
275 445
275 476
275 542
276 293
276 348
277 454
277 478
277 508
278 374
278 514
278 587
278 588
278 660
278 698
278 795
278 816
278 825
278 907
279 334
279 380
279 381
280 382
280 405
281 323
281 335
281 386
282 305
282 384
282 561
282 602
282 999
283 441
283 857
284 340
284 364
285 299
285 300
285 314
285 352
285 354
285 358
285 390
285 399
285 409
285 419
286 298
286 307
286 650
286 690
286 829
287 288
287 308
287 328
287 329
287 330
287 342
287 343
287 852
288 308
288 328
288 329
288 330
288 342
288 343
289 360
289 361
289 368
289 392
289 417
289 432
289 433
289 529
289 845
290 309
290 310
290 344
290 345
290 369
290 415
291 346
292 371
292 490
293 348
293 434
293 958
294 377
294 715
294 716
294 769
294 871
294 989
295 490
295 547
295 927
297 414
297 535
297 609
297 614
297 619
298 307
298 401
298 573
299 300
299 314
299 352
299 354
299 390
299 399
299 409
299 419
300 314
300 352
300 354
300 399
300 409
300 419
301 377
301 400
301 422
301 672
302 459
303 325
303 484
304 321
304 349
304 406
304 461
304 555
304 654
304 655
304 677
305 384
305 554
305 602
306 339
306 350
306 389
306 392
307 401
307 690
307 829
308 328
308 329
308 330
308 342
308 343
308 391
309 310
309 344
309 345
309 369
309 415
310 344
310 345
310 369
312 317
312 320
312 369
312 694
313 356
313 403
313 435
313 468
313 665
313 722
314 352
314 354
314 399
316 770
316 991
317 320
317 393
317 402
317 423
317 517
317 590
317 803
318 334
318 380
318 381
319 333
319 543
319 673
319 706
319 974
319 975
319 976
320 393
321 654
321 655
321 676
321 753
322 366
322 426
322 452
322 474
322 577
322 628
323 566
324 388
324 499
324 559
324 560
324 562
324 601
324 726
324 813
326 372
326 396
326 455
326 462
326 489
327 439
327 471
327 604
327 645
327 657
328 329
328 330
328 342
328 343
329 330
329 342
329 343
330 342
330 343
331 360
331 361
331 392
331 417
331 432
331 433
331 529
332 368
332 383
332 469
332 760
332 972
333 513
333 586
333 706
333 781
334 380
334 381
335 495
335 914
336 338
336 366
336 387
336 438
336 463
336 474
336 497
336 498
336 507
336 581
336 659
337 408
337 470
337 486
337 543
338 366
338 387
338 438
338 463
338 474
338 497
338 498
338 507
338 581
339 693
340 364
344 345
344 415
344 448
344 626
345 369
345 415
346 476
346 542
347 494
347 531
349 484
349 877
349 896
351 666
351 865
352 358
352 390
352 399
353 453
353 456
353 610
354 358
354 390
354 409
355 376
355 377
355 400
355 422
356 403
356 404
356 424
356 468
356 482
356 556
356 558
356 782
357 605
357 680
357 738
358 450
358 548
359 406
359 461
359 593
359 594
359 595
359 724
360 368
360 392
360 417
360 432
360 433
360 529
360 681
360 729
361 417
361 432
361 433
361 529
361 926
362 618
362 709
362 710
363 418
363 473
363 575
364 525
366 375
366 387
366 438
366 463
366 474
366 497
366 498
366 577
366 736
367 383
367 469
367 496
367 528
367 532
367 705
367 740
367 757
367 763
368 383
368 392
368 417
368 469
370 445
370 476
371 450
372 396
372 455
374 514
374 588
374 589
374 783
374 795
374 940
375 426
375 452
375 474
375 658
375 659
376 400
376 739
376 943
377 400
377 422
377 716
378 424
378 482
378 635
379 465
380 381
381 440
383 469
384 674
385 407
386 441
387 426
387 438
387 463
387 474
387 497
387 498
387 736
387 923
388 499
388 537
388 540
388 562
390 409
390 419
391 412
391 413
391 446
391 447
392 417
394 899
395 460
395 483
395 632
395 779
395 780
395 878
396 455
396 462
397 513
397 586
397 617
397 634
397 774
397 784
397 858
397 859
397 864
398 477
398 479
400 422
401 574
402 423
402 517
402 711
403 424
403 482
403 552
403 782
404 424
404 482
404 552
404 571
406 461
406 514
406 555
406 593
406 594
406 595
406 677
406 806
406 892
409 519
409 799
410 444
410 616
411 442
411 443
411 475
411 501
411 579
411 624
411 938
412 413
412 446
412 447
413 446
413 447
414 534
414 535
414 539
414 567
414 614
414 993
416 511
417 432
417 433
418 473
418 575
420 421
420 502
421 502
423 517
423 711
424 552
424 635
425 636
426 577
426 658
426 736
426 808
427 487
427 488
427 556
427 557
427 558
427 638
427 678
428 430
428 524
428 564
428 565
428 597
428 598
428 679
429 603
430 524
430 597
430 598
430 679
430 884
431 492
431 526
431 639
431 640
431 641
431 642
431 643
431 788
431 789
431 935
432 433
434 464
434 523
435 437
435 466
435 468
435 533
435 557
435 702
435 838
436 467
437 466
437 533
437 606
438 463
438 474
438 497
438 498
439 440
439 471
439 538
440 538
440 733
441 495
442 443
442 475
442 501
442 624
443 475
443 501
443 579
443 624
444 990
445 476
446 447
448 480
448 714
448 984
448 985
448 986
449 623
449 814
449 851
449 968
450 629
451 708
451 822
452 628
453 560
453 610
454 508
457 591
457 633
458 483
458 596
459 516
459 673
460 576
460 596
461 555
461 593
461 594
461 595
461 677
461 806
462 489
463 497
463 498
463 577
464 612
466 468
466 487
466 701
466 702
468 533
468 606
468 702
469 496
469 528
470 495
471 657
473 575
474 497
474 498
475 501
475 579
480 714
480 730
481 626
481 627
481 632
483 503
483 576
484 820
485 675
485 684
486 651
487 488
487 556
487 557
487 558
487 638
487 758
487 924
488 557
488 558
488 955
491 648
491 916
492 797
492 893
492 951
492 964
492 965
493 692
493 734
493 843
493 844
494 531
496 528
496 705
496 740
496 763
497 577
498 577
499 537
500 590
500 617
500 707
500 752
500 848
500 860
500 905
501 579
501 624
502 515
503 621
504 708
505 512
506 600
507 545
507 581
508 948
509 661
510 549
510 550
510 583
510 584
510 585
513 631
513 855
514 588
514 589
514 660
514 783
514 816
514 825
518 551
518 634
518 891
518 915
519 792
519 799
519 801
519 802
520 553
520 571
520 637
524 564
524 565
524 597
524 598
524 679
526 639
526 640
526 641
526 642
526 643
526 788
526 789
527 681
527 682
527 729
527 902
528 705
528 740
530 681
530 745
530 953
530 959
532 574
532 757
533 606
533 854
534 567
534 614
535 539
535 567
535 614
536 699
537 540
538 733
539 567
539 619
544 737
544 741
544 772
544 906
545 581
545 743
547 666
548 629
549 550
549 583
549 584
549 585
550 583
550 584
550 585
551 634
551 882
553 637
553 693
554 602
554 674
555 677
556 557
556 558
556 638
557 558
557 638
558 638
559 560
559 601
559 726
560 601
561 746
564 565
564 751
565 597
569 685
570 608
570 649
570 652
571 823
571 866
574 621
576 596
583 584
583 585
584 585
586 767
587 588
587 589
587 660
588 589
588 660
588 698
589 783
590 784
590 941
590 942
593 594
593 595
593 724
594 595
594 724
595 724
597 598
597 679
598 679
599 827
599 828
600 750
601 726
604 644
604 645
604 656
604 727
605 680
605 738
606 702
607 648
608 649
610 726
611 652
611 779
611 780
611 878
613 950
617 634
617 932
620 805
621 931
622 765
622 850
622 970
622 981
623 814
627 780
631 830
634 686
634 936
635 911
638 758
639 640
639 641
639 642
639 643
640 641
640 642
640 643
641 642
641 643
642 643
644 645
644 727
644 870
644 897
645 727
646 647
646 683
647 683
649 652
650 690
650 770
650 908
653 957
654 655
656 733
658 659
658 808
659 944
661 861
661 862
661 977
662 865
662 980
663 678
663 842
663 973
664 667
664 764
665 879
667 764
669 786
669 787
670 671
670 723
670 790
670 836
671 682
671 723
671 790
671 836
674 929
678 842
680 738
681 729
682 723
682 894
685 730
685 920
686 858
686 859
687 912
690 930
691 692
691 831
691 834
691 917
692 834
695 696
695 747
695 748
695 749
696 747
696 748
696 749
697 746
700 754
701 939
703 755
703 756
703 824
705 763
707 752
707 860
708 979
709 710
711 853
712 713
715 769
715 871
717 718
717 771
718 771
721 773
721 774
721 992
721 996
722 879
723 790
728 794
732 898
734 918
735 811
735 812
742 945
744 952
747 748
752 848
755 756
762 857
765 856
768 835
773 890
773 982
774 889
775 876
776 777
776 778
777 778
785 873
788 789
791 880
791 966
797 886
800 804
800 903
801 802
807 900
809 810
811 812
821 822
821 904
827 828
830 855
831 949
832 849
832 934
837 874
839 840
841 956
843 844
845 967
846 847
849 850
861 862
863 971
864 978
867 868
869 883
870 983
874 994
